Route #1: 1 1 8 26 48 27 46 37 45 10 49 50 38 11 1 
Route #2: 1 22 20 36 3 28 31 6 25 41 17 1 
Route #3: 1 32 5 12 40 39 16 21 29 35 2 1 
Route #4: 1 7 24 14 13 18 47 4 15 1 
Route #5: 1 9 34 30 33 44 42 19 43 23 1 

Cost 871.012
Time 0.4163


 * Another infos *

 Iterations: 51 Time: 0.4163 sec - 0.0069 min - 0.0001 horas
0.0000 h 0.0069 min
Problem dimension: 51
